g3 3 1 0	# problem ex1266
 177 95 1 0 42	# vars, constraints, objectives, ranges, eqns
 6 0	# nonlinear constraints, objectives
 0 0	# network constraints: nonlinear, linear
 42 0 0	# nonlinear vars in constraints, objectives, both
 0 0 0 1	# linear network variables; functions; arith, flags
 135 0 0 0 0	# discrete variables: binary, integer, nonlinear (b,c,o)
 461 11	# nonzeros in Jacobian, gradients
 3 4	# max name lengths: constraints, variables
 0 0 0 0 0	# common exprs: b,c,o,c1,o1
C0
o54
6
o2
v36
v0
o2
v37
v1
o2
v38
v2
o2
v39
v3
o2
v40
v4
o2
v41
v5
C1
o54
6
o2
v36
v6
o2
v37
v7
o2
v38
v8
o2
v39
v9
o2
v40
v10
o2
v41
v11
C2
o54
6
o2
v36
v12
o2
v37
v13
o2
v38
v14
o2
v39
v15
o2
v40
v16
o2
v41
v17
C3
o54
6
o2
v36
v18
o2
v37
v19
o2
v38
v20
o2
v39
v21
o2
v40
v22
o2
v41
v23
C4
o54
6
o2
v36
v24
o2
v37
v25
o2
v38
v26
o2
v39
v27
o2
v40
v28
o2
v41
v29
C5
o54
6
o2
v36
v30
o2
v37
v31
o2
v38
v32
o2
v39
v33
o2
v40
v34
o2
v41
v35
C6
n0
C7
n0
C8
n0
C9
n0
C10
n0
C11
n0
C12
n0
C13
n0
C14
n0
C15
n0
C16
n0
C17
n0
C18
n0
C19
n0
C20
n0
C21
n0
C22
n0
C23
n0
C24
n0
C25
n0
C26
n0
C27
n0
C28
n0
C29
n0
C30
n0
C31
n0
C32
n0
C33
n0
C34
n0
C35
n0
C36
n0
C37
n0
C38
n0
C39
n0
C40
n0
C41
n0
C42
n0
C43
n0
C44
n0
C45
n0
C46
n0
C47
n0
C48
n0
C49
n0
C50
n0
C51
n0
C52
n0
C53
n0
C54
n0
C55
n0
C56
n0
C57
n0
C58
n0
C59
n0
C60
n0
C61
n0
C62
n0
C63
n0
C64
n0
C65
n0
C66
n0
C67
n0
C68
n0
C69
n0
C70
n0
C71
n0
C72
n0
C73
n0
C74
n0
C75
n0
C76
n0
C77
n0
C78
n0
C79
n0
C80
n0
C81
n0
C82
n0
C83
n0
C84
n0
C85
n0
C86
n0
C87
n0
C88
n0
C89
n0
C90
n0
C91
n0
C92
n0
C93
n0
C94
n0
O0 0
n0
x8
0 1
6 2
13 2
19 1
25 2
30 1
36 8
37 7
r
2 8
2 16
2 12
2 7
2 14
2 16
1 0
1 0
1 0
1 0
1 0
1 0
1 0
1 0
1 0
1 0
1 0
1 0
1 0
1 0
1 0
1 0
1 0
1 0
1 0
1 0
1 0
1 0
1 0
1 0
1 0
1 0
1 0
1 0
1 0
1 0
1 0
1 0
1 0
1 0
1 0
1 0
2 16
1 0
1 0
1 0
1 0
1 0
1 0
1 0
1 0
1 0
1 0
4 0
4 0
4 0
4 0
4 0
4 0
4 0
4 0
4 0
4 0
4 0
4 0
4 0
4 0
4 0
4 0
4 0
4 0
4 0
4 0
4 0
4 0
4 0
4 0
4 0
4 0
4 0
4 0
4 0
4 0
4 0
4 0
4 0
4 0
4 0
4 0
4 0
4 0
4 0
4 0
4 0
4 0
b
0 0 5
0 0 5
0 0 5
0 0 5
0 0 5
0 0 5
0 0 5
0 0 5
0 0 5
0 0 5
0 0 5
0 0 5
0 0 5
0 0 5
0 0 5
0 0 5
0 0 5
0 0 5
0 0 5
0 0 5
0 0 5
0 0 5
0 0 5
0 0 5
0 0 5
0 0 5
0 0 5
0 0 5
0 0 5
0 0 5
0 0 5
0 0 5
0 0 5
0 0 5
0 0 5
0 0 5
0 0 15
0 0 12
0 0 8
0 0 7
0 0 4
0 0 2
0 0 1
0 0 1
0 0 1
0 0 1
0 0 1
0 0 1
0 0 1
0 0 1
0 0 1
0 0 1
0 0 1
0 0 1
0 0 1
0 0 1
0 0 1
0 0 1
0 0 1
0 0 1
0 0 1
0 0 1
0 0 1
0 0 1
0 0 1
0 0 1
0 0 1
0 0 1
0 0 1
0 0 1
0 0 1
0 0 1
0 0 1
0 0 1
0 0 1
0 0 1
0 0 1
0 0 1
0 0 1
0 0 1
0 0 1
0 0 1
0 0 1
0 0 1
0 0 1
0 0 1
0 0 1
0 0 1
0 0 1
0 0 1
0 0 1
0 0 1
0 0 1
0 0 1
0 0 1
0 0 1
0 0 1
0 0 1
0 0 1
0 0 1
0 0 1
0 0 1
0 0 1
0 0 1
0 0 1
0 0 1
0 0 1
0 0 1
0 0 1
0 0 1
0 0 1
0 0 1
0 0 1
0 0 1
0 0 1
0 0 1
0 0 1
0 0 1
0 0 1
0 0 1
0 0 1
0 0 1
0 0 1
0 0 1
0 0 1
0 0 1
0 0 1
0 0 1
0 0 1
0 0 1
0 0 1
0 0 1
0 0 1
0 0 1
0 0 1
0 0 1
0 0 1
0 0 1
0 0 1
0 0 1
0 0 1
0 0 1
0 0 1
0 0 1
0 0 1
0 0 1
0 0 1
0 0 1
0 0 1
0 0 1
0 0 1
0 0 1
0 0 1
0 0 1
0 0 1
0 0 1
0 0 1
0 0 1
0 0 1
0 0 1
0 0 1
0 0 1
0 0 1
0 0 1
0 0 1
0 0 1
0 0 1
0 0 1
0 0 1
0 0 1
0 0 1
0 0 1
0 0 1
0 0 1
0 0 1
0 0 1
0 0 1
k176
6
12
18
24
30
36
42
48
54
60
66
72
78
84
90
96
102
108
114
120
126
132
138
144
150
156
162
168
174
180
186
192
198
204
210
216
227
239
251
263
275
286
287
288
289
290
291
292
293
294
295
296
297
298
299
300
301
302
303
304
305
306
307
308
309
310
311
312
313
314
315
316
317
318
319
320
321
322
323
324
325
326
327
328
329
330
331
332
333
334
335
336
337
338
339
340
341
342
343
344
345
346
347
348
349
350
351
352
353
354
355
356
357
358
359
360
361
362
363
364
365
366
367
368
369
370
371
372
373
374
375
376
377
378
379
380
381
382
383
384
385
386
387
388
389
390
391
392
393
394
401
409
417
425
433
440
441
442
443
444
445
446
447
448
449
450
451
452
453
454
455
456
457
458
459
460
J0 12
0 0
1 0
2 0
3 0
4 0
5 0
36 0
37 0
38 0
39 0
40 0
41 0
J1 12
6 0
7 0
8 0
9 0
10 0
11 0
36 0
37 0
38 0
39 0
40 0
41 0
J2 12
12 0
13 0
14 0
15 0
16 0
17 0
36 0
37 0
38 0
39 0
40 0
41 0
J3 12
18 0
19 0
20 0
21 0
22 0
23 0
36 0
37 0
38 0
39 0
40 0
41 0
J4 12
24 0
25 0
26 0
27 0
28 0
29 0
36 0
37 0
38 0
39 0
40 0
41 0
J5 12
30 0
31 0
32 0
33 0
34 0
35 0
36 0
37 0
38 0
39 0
40 0
41 0
J6 7
0 -330
6 -360
12 -380
18 -430
24 -490
30 -530
150 2100
J7 7
1 -330
7 -360
13 -380
19 -430
25 -490
31 -530
151 2100
J8 7
2 -330
8 -360
14 -380
20 -430
26 -490
32 -530
152 2100
J9 7
3 -330
9 -360
15 -380
21 -430
27 -490
33 -530
153 2100
J10 7
4 -330
10 -360
16 -380
22 -430
28 -490
34 -530
154 2100
J11 7
5 -330
11 -360
17 -380
23 -430
29 -490
35 -530
155 2100
J12 7
0 330
6 360
12 380
18 430
24 490
30 530
150 -2200
J13 7
1 330
7 360
13 380
19 430
25 490
31 530
151 -2200
J14 7
2 330
8 360
14 380
20 430
26 490
32 530
152 -2200
J15 7
3 330
9 360
15 380
21 430
27 490
33 530
153 -2200
J16 7
4 330
10 360
16 380
22 430
28 490
34 530
154 -2200
J17 7
5 330
11 360
17 380
23 430
29 490
35 530
155 -2200
J18 7
0 -1
6 -1
12 -1
18 -1
24 -1
30 -1
150 1
J19 7
1 -1
7 -1
13 -1
19 -1
25 -1
31 -1
151 1
J20 7
2 -1
8 -1
14 -1
20 -1
26 -1
32 -1
152 1
J21 7
3 -1
9 -1
15 -1
21 -1
27 -1
33 -1
153 1
J22 7
4 -1
10 -1
16 -1
22 -1
28 -1
34 -1
154 1
J23 7
5 -1
11 -1
17 -1
23 -1
29 -1
35 -1
155 1
J24 7
0 1
6 1
12 1
18 1
24 1
30 1
150 -5
J25 7
1 1
7 1
13 1
19 1
25 1
31 1
151 -5
J26 7
2 1
8 1
14 1
20 1
26 1
32 1
152 -5
J27 7
3 1
9 1
15 1
21 1
27 1
33 1
153 -5
J28 7
4 1
10 1
16 1
22 1
28 1
34 1
154 -5
J29 7
5 1
11 1
17 1
23 1
29 1
35 1
155 -5
J30 2
36 -1
150 1
J31 2
37 -1
151 1
J32 2
38 -1
152 1
J33 2
39 -1
153 1
J34 2
40 -1
154 1
J35 2
41 -1
155 1
J36 2
36 1
150 -15
J37 2
37 1
151 -12
J38 2
38 1
152 -8
J39 2
39 1
153 -7
J40 2
40 1
154 -4
J41 2
41 1
155 -2
J42 6
36 1
37 1
38 1
39 1
40 1
41 1
J43 2
150 -1
151 1
J44 2
151 -1
152 1
J45 2
152 -1
153 1
J46 2
153 -1
154 1
J47 2
154 -1
155 1
J48 2
36 -1
37 1
J49 2
37 -1
38 1
J50 2
38 -1
39 1
J51 2
39 -1
40 1
J52 2
40 -1
41 1
J53 4
0 1
42 -1
43 -2
44 -4
J54 4
1 1
45 -1
46 -2
47 -4
J55 4
2 1
48 -1
49 -2
50 -4
J56 4
3 1
51 -1
52 -2
53 -4
J57 4
4 1
54 -1
55 -2
56 -4
J58 4
5 1
57 -1
58 -2
59 -4
J59 4
6 1
60 -1
61 -2
62 -4
J60 4
7 1
63 -1
64 -2
65 -4
J61 4
8 1
66 -1
67 -2
68 -4
J62 4
9 1
69 -1
70 -2
71 -4
J63 4
10 1
72 -1
73 -2
74 -4
J64 4
11 1
75 -1
76 -2
77 -4
J65 4
12 1
78 -1
79 -2
80 -4
J66 4
13 1
81 -1
82 -2
83 -4
J67 4
14 1
84 -1
85 -2
86 -4
J68 4
15 1
87 -1
88 -2
89 -4
J69 4
16 1
90 -1
91 -2
92 -4
J70 4
17 1
93 -1
94 -2
95 -4
J71 4
18 1
96 -1
97 -2
98 -4
J72 4
19 1
99 -1
100 -2
101 -4
J73 4
20 1
102 -1
103 -2
104 -4
J74 4
21 1
105 -1
106 -2
107 -4
J75 4
22 1
108 -1
109 -2
110 -4
J76 4
23 1
111 -1
112 -2
113 -4
J77 4
24 1
114 -1
115 -2
116 -4
J78 4
25 1
117 -1
118 -2
119 -4
J79 4
26 1
120 -1
121 -2
122 -4
J80 4
27 1
123 -1
124 -2
125 -4
J81 4
28 1
126 -1
127 -2
128 -4
J82 4
29 1
129 -1
130 -2
131 -4
J83 4
30 1
132 -1
133 -2
134 -4
J84 4
31 1
135 -1
136 -2
137 -4
J85 4
32 1
138 -1
139 -2
140 -4
J86 4
33 1
141 -1
142 -2
143 -4
J87 4
34 1
144 -1
145 -2
146 -4
J88 4
35 1
147 -1
148 -2
149 -4
J89 5
36 1
156 -1
157 -2
158 -4
159 -8
J90 5
37 1
160 -1
161 -2
162 -4
163 -8
J91 5
38 1
164 -1
165 -2
166 -4
167 -8
J92 4
39 1
168 -1
169 -2
170 -4
J93 4
40 1
171 -1
172 -2
173 -4
J94 4
41 1
174 -1
175 -2
176 -4
G0 11
36 1
37 1
38 1
39 1
40 1
41 1
150 0.1
151 0.2
152 0.3
153 0.4
154 0.5
